instances/shortest_path/discrete/shortest_path_5_12.lp
\ Model nohadani_5_12
\ LP format - for model browsing. Use MPS format to capture full model detail.
\ Signature: 0xa1d49c5c4aa7c587
Minimize
  58.13776741499453 y[0,1] + 45.34313619501854 y[0,2]
   + 24.33105012119288 y[0,3] + 27.20294101747089 y[0,4]
   + 58.13776741499453 y[1,0] + 41.03656905736639 y[1,3]
   + 36.22154055254967 y[1,4] + 45.34313619501854 y[2,0]
   + 50.63595560468865 y[2,4] + 24.33105012119288 y[3,0]
   + 41.03656905736639 y[3,1] + 27.20294101747089 y[3,4]
   + 27.20294101747089 y[4,0] + 36.22154055254967 y[4,1]
   + 50.63595560468865 y[4,2] + 27.20294101747089 y[4,3] + x[0,1] + x[0,2]
   + x[0,3] + x[0,4] + x[1,0] + x[1,3] + x[1,4] + x[2,0] + x[2,4] + x[3,0]
   + x[3,1] + x[3,4] + x[4,0] + x[4,1] + x[4,2] + x[4,3]
   + 5.813776741499454 r[0,1] + 4.534313619501854 r[0,2]
   + 2.433105012119288 r[0,3] + 2.720294101747089 r[0,4]
   + 5.813776741499454 r[1,0] + 4.103656905736639 r[1,3]
   + 3.622154055254967 r[1,4] + 4.534313619501854 r[2,0]
   + 5.063595560468865 r[2,4] + 2.433105012119288 r[3,0]
   + 4.103656905736639 r[3,1] + 2.720294101747089 r[3,4]
   + 2.720294101747089 r[4,0] + 3.622154055254967 r[4,1]
   + 5.063595560468865 r[4,2] + 2.720294101747089 r[4,3]
Subject To
 flow_cons_inner_nodes[0]: - y[0,1] - y[0,2] - y[0,3] - y[0,4] + y[1,0]
   + y[2,0] + y[3,0] + y[4,0] = 0
 flow_cons_inner_nodes[3]: y[0,3] + y[1,3] - y[3,0] - y[3,1] - y[3,4]
   + y[4,3] = 0
 flow_cons_inner_nodes[4]: y[0,4] + y[1,4] + y[2,4] + y[3,4] - y[4,0]
   - y[4,1] - y[4,2] - y[4,3] = 0
 flow_cons_source: - y[0,1] + y[1,0] + y[1,3] + y[1,4] - y[3,1] - y[4,1]
   = 1
 flow_cons_target: y[0,2] - y[2,0] - y[2,4] + y[4,2] = 1
 primal_lower: 4.05512853847944 x[0,1] + 2.438626318652184 x[0,2]
   + 4.610230478044855 x[0,3] + 5.401086949317016 x[0,4]
   + 1.090386947730249 x[1,0] + 4.907097498940605 x[1,3]
   + 5.536310553985717 x[1,4] + 4.519855098299377 x[2,0]
   + 2.414608949390065 x[2,4] + 4.402145894076623 x[3,0]
   + 0.7941867024612856 x[3,1] + 3.594713280199078 x[3,4]
   + 2.35921939069919 x[4,0] + 4.753129417902144 x[4,1]
   + 3.325299889446919 x[4,2] + 4.727293332714772 x[4,3] + 4 u[0,1]
   + 96 u[0,2] + 26 u[0,3] + 83 u[0,4] + 68 u[1,0] + 2 u[1,3] + 33 u[1,4]
   + 32 u[2,0] + 13 u[2,4] + 58 u[3,0] + 44 u[3,1] + 55 u[3,4] + 92 u[4,0]
   + 32 u[4,1] + 73 u[4,2] + 17 u[4,3] <= 96
 mccormick1[0,1]: - u[0,1] + r[0,1] <= 0
 mccormick1[0,2]: - u[0,2] + r[0,2] <= 0
 mccormick1[0,3]: - u[0,3] + r[0,3] <= 0
 mccormick1[0,4]: - u[0,4] + r[0,4] <= 0
 mccormick1[1,0]: - u[1,0] + r[1,0] <= 0
 mccormick1[1,3]: - u[1,3] + r[1,3] <= 0
 mccormick1[1,4]: - u[1,4] + r[1,4] <= 0
 mccormick1[2,0]: - u[2,0] + r[2,0] <= 0
 mccormick1[2,4]: - u[2,4] + r[2,4] <= 0
 mccormick1[3,0]: - u[3,0] + r[3,0] <= 0
 mccormick1[3,1]: - u[3,1] + r[3,1] <= 0
 mccormick1[3,4]: - u[3,4] + r[3,4] <= 0
 mccormick1[4,0]: - u[4,0] + r[4,0] <= 0
 mccormick1[4,1]: - u[4,1] + r[4,1] <= 0
 mccormick1[4,2]: - u[4,2] + r[4,2] <= 0
 mccormick1[4,3]: - u[4,3] + r[4,3] <= 0
 mccormick2[0,1]: - y[0,1] + r[0,1] <= 0
 mccormick2[0,2]: - y[0,2] + r[0,2] <= 0
 mccormick2[0,3]: - y[0,3] + r[0,3] <= 0
 mccormick2[0,4]: - y[0,4] + r[0,4] <= 0
 mccormick2[1,0]: - y[1,0] + r[1,0] <= 0
 mccormick2[1,3]: - y[1,3] + r[1,3] <= 0
 mccormick2[1,4]: - y[1,4] + r[1,4] <= 0
 mccormick2[2,0]: - y[2,0] + r[2,0] <= 0
 mccormick2[2,4]: - y[2,4] + r[2,4] <= 0
 mccormick2[3,0]: - y[3,0] + r[3,0] <= 0
 mccormick2[3,1]: - y[3,1] + r[3,1] <= 0
 mccormick2[3,4]: - y[3,4] + r[3,4] <= 0
 mccormick2[4,0]: - y[4,0] + r[4,0] <= 0
 mccormick2[4,1]: - y[4,1] + r[4,1] <= 0
 mccormick2[4,2]: - y[4,2] + r[4,2] <= 0
 mccormick2[4,3]: - y[4,3] + r[4,3] <= 0
 mccormick3[0,1]: - y[0,1] - u[0,1] + r[0,1] >= -1
 mccormick3[0,2]: - y[0,2] - u[0,2] + r[0,2] >= -1
 mccormick3[0,3]: - y[0,3] - u[0,3] + r[0,3] >= -1
 mccormick3[0,4]: - y[0,4] - u[0,4] + r[0,4] >= -1
 mccormick3[1,0]: - y[1,0] - u[1,0] + r[1,0] >= -1
 mccormick3[1,3]: - y[1,3] - u[1,3] + r[1,3] >= -1
 mccormick3[1,4]: - y[1,4] - u[1,4] + r[1,4] >= -1
 mccormick3[2,0]: - y[2,0] - u[2,0] + r[2,0] >= -1
 mccormick3[2,4]: - y[2,4] - u[2,4] + r[2,4] >= -1
 mccormick3[3,0]: - y[3,0] - u[3,0] + r[3,0] >= -1
 mccormick3[3,1]: - y[3,1] - u[3,1] + r[3,1] >= -1
 mccormick3[3,4]: - y[3,4] - u[3,4] + r[3,4] >= -1
 mccormick3[4,0]: - y[4,0] - u[4,0] + r[4,0] >= -1
 mccormick3[4,1]: - y[4,1] - u[4,1] + r[4,1] >= -1
 mccormick3[4,2]: - y[4,2] - u[4,2] + r[4,2] >= -1
 mccormick3[4,3]: - y[4,3] - u[4,3] + r[4,3] >= -1
Bounds
Binaries
 y[0,1] y[0,2] y[0,3] y[0,4] y[1,0] y[1,3] y[1,4] y[2,0] y[2,4] y[3,0]
 y[3,1] y[3,4] y[4,0] y[4,1] y[4,2] y[4,3] x[0,1] x[0,2] x[0,3] x[0,4]
 x[1,0] x[1,3] x[1,4] x[2,0] x[2,4] x[3,0] x[3,1] x[3,4] x[4,0] x[4,1]
 x[4,2] x[4,3] u[0,1] u[0,2] u[0,3] u[0,4] u[1,0] u[1,3] u[1,4] u[2,0]
 u[2,4] u[3,0] u[3,1] u[3,4] u[4,0] u[4,1] u[4,2] u[4,3] r[0,1] r[0,2]
 r[0,3] r[0,4] r[1,0] r[1,3] r[1,4] r[2,0] r[2,4] r[3,0] r[3,1] r[3,4]
 r[4,0] r[4,1] r[4,2] r[4,3]
End
